n_res = 4;
rc = [ 13, 14, 12, 13 ];
n_tasks = 15;
d = [ 5, 4, 8, 1, 100, 175, 200, 50, 50, 100, 175, 10, 8, 4, 2 ];
rr = [| 4, 2, 9, 7, 6, 10, 3, 5, 0, 7, 3, 5, 2, 5, 0
      | 7, 10, 2, 6, 0, 6, 7, 10, 5, 6, 1, 7, 4, 9, 0
      | 3, 9, 4, 6, 0, 0, 6, 0, 4, 8, 6, 8, 9, 7, 8
      | 8, 0, 7, 9, 2, 0, 1, 4, 0, 0, 0, 10, 0, 10, 8 |];
suc = [ { 15 },
       { 4 },
       { 5, 7, 9 },
       {  },
       { 6 },
       { 8, 10, 11 },
       {  },
       {  },
       { 13, 14 },
       { 15 },
       { 12 },
       { 14 },
       {  },
       {  },
       {  } ];
